SPARKNaCl/why3-cvc5/sparknacl-utils.ads_50_14_contract_case2_1.smt2
;; produced by cvc5.drv ;;
(set-logic ALL)
(set-info :smt-lib-version 2.6)
;;; generated by SMT-LIB2 driver
;;; SMT-LIB2 driver: bit-vectors, common part
;;; SMT-LIB2: integer arithmetic
;; "pow2"
(declare-fun pow2 (Int) Int)

(declare-const two_power_size_minus_one Int)

;; "two_power_size_minus_one_val"
(assert (= two_power_size_minus_one (pow2 (- 16 1))))

;; "min"
(define-fun min ((x Int) (y Int)) Int
  (ite (<= x y) x y))

;; "max"
(define-fun max ((x Int) (y Int)) Int
  (ite (<= x y) y x))

;; "Min_r"
(assert (forall ((x Int) (y Int)) (=> (<= y x) (= (min x y) y))))

;; "Max_l"
(assert (forall ((x Int) (y Int)) (=> (<= y x) (= (max x y) x))))

;; "Min_comm"
(assert (forall ((x Int) (y Int)) (= (min x y) (min y x))))

;; "Max_comm"
(assert (forall ((x Int) (y Int)) (= (max x y) (max y x))))

;; "Min_assoc"
(assert
  (forall ((x Int) (y Int) (z Int)) (= (min (min x y) z) (min x (min y z)))))

;; "Max_assoc"
(assert
  (forall ((x Int) (y Int) (z Int)) (= (max (max x y) z) (max x (max y z)))))

(declare-sort gf16_normal_limb 0)

;; "to_rep"
(declare-fun to_rep (gf16_normal_limb) (_ BitVec 16))

;; "of_rep"
(declare-fun of_rep ((_ BitVec 16)) gf16_normal_limb)

;; "inversion_axiom"
(assert
  (forall ((x gf16_normal_limb))
    (! (= (of_rep (to_rep x)) x) :pattern ((to_rep x)) )))

;; "range_axiom"
(assert true)

;; "coerce_axiom"
(assert
  (forall ((x (_ BitVec 16)))
    (! (= (to_rep (of_rep x)) x) :pattern ((to_rep (of_rep x))) )))

(declare-sort map1 0)

;; "has_bounds"
(declare-fun has_bounds (map1
  Int
  Int) Bool)

;; "get"
(declare-fun get (map1
  Int) gf16_normal_limb)

;; "set"
(declare-fun set (map1
  Int
  gf16_normal_limb) map1)

;; "set_eq"
(assert
  (forall ((a map1) (i Int) (v gf16_normal_limb))
    (! (= (get (set a i v) i) v) :pattern ((set a i v)) )))

;; "set_neq"
(assert
  (forall ((a map1) (i Int) (v gf16_normal_limb))
    (! (forall ((j Int))
         (! (=> (not (= i j)) (= (get (set a i v) j) (get a j))) :pattern (
         (get
           a
           j)) :pattern ((get (set a i v) j)) )) :pattern ((set a i v)) )))

;; "set_has_bounds"
(assert
  (forall ((a map1) (i Int) (f Int) (l Int) (v gf16_normal_limb))
    (! (=>
         (and (<= f i) (<= i l))
         (=> (has_bounds a f l) (has_bounds (set a i v) f l))) :pattern (
    (has_bounds
      (set a i v)
      f
      l)) )))

;; "bool_eq"
(define-fun bool_eq ((a map1) (a__first Int) (a__last Int) (b map1) (b__first Int) (b__last Int)) Bool
  (ite (and
         (ite (<= a__first a__last)
           (and
             (<= b__first b__last)
             (= (- a__last a__first) (- b__last b__first)))
           (< b__last b__first))
         (forall ((temp___idx_173 Int))
           (=>
             (and (<= a__first temp___idx_173) (<= temp___idx_173 a__last))
             (= (to_rep (get a temp___idx_173)) (to_rep
                                                  (get
                                                    b
                                                    (+ (- b__first a__first) temp___idx_173)))))))
    true
    false))

;; "bool_eq_rev"
(assert
  (forall ((a map1) (b map1))
    (forall ((a__first Int) (a__last Int) (b__first Int) (b__last Int))
      (=>
        (= (bool_eq b b__first b__last a a__first a__last) true)
        (and
          (ite (<= a__first a__last)
            (and
              (<= b__first b__last)
              (= (- a__last a__first) (- b__last b__first)))
            (< b__last b__first))
          (forall ((temp___idx_173 Int))
            (=>
              (and (<= a__first temp___idx_173) (<= temp___idx_173 a__last))
              (= (to_rep (get a temp___idx_173)) (to_rep
                                                   (get
                                                     b
                                                     (+ (- b__first a__first) temp___idx_173)))))))))))

(declare-const swap Bool)

;; Goal "def'vc"
;; File "sparknacl-utils.ads", line 44, characters 0-0
(assert
  (not
  (forall ((p map1) (q map1) (t (_ BitVec 16)))
    (=>
      (has_bounds p 0 15)
      (=>
        (has_bounds q 0 15)
        (forall ((c (_ BitVec 16)))
          (=>
            (= c (bvmul #xFFFF ((_ int2bv 16) (ite swap 1 0))))
            (forall ((p1 map1) (q1 map1) (t1 (_ BitVec 16)))
              (=>
                (exists ((i Int))
                  (and
                    (= i 0)
                    (ite (= (and (ite (<= 0 i) true false) (ite (<= i 15)
                                                             true
                                                             false)) true)
                      (exists ((o (_ BitVec 16)))
                        (and
                          (= (to_rep (get q i)) o)
                          (exists ((o1 (_ BitVec 16)))
                            (and
                              (= (to_rep (get p i)) o1)
                              (exists ((t2 (_ BitVec 16)))
                                (and
                                  (= t2 (bvand c (bvxor o1 o)))
                                  (and
                                    (ite (= swap true)
                                      (and
                                        (and
                                          (= t2 (bvxor (to_rep (get p i)) 
                                          (to_rep
                                            (get q i))))
                                          (= (bvxor (to_rep (get p i)) t2) 
                                          (to_rep
                                            (get q i))))
                                        (= (bvxor (to_rep (get q i)) t2) 
                                        (to_rep
                                          (get p i))))
                                      (and
                                        (and
                                          (= t2 #x0000)
                                          (= (bvxor (to_rep (get p i)) t2) 
                                          (to_rep
                                            (get p i))))
                                        (= (bvxor (to_rep (get q i)) t2) 
                                        (to_rep
                                          (get q i)))))
                                    (exists ((o2 (_ BitVec 16)))
                                      (and
                                        (= (to_rep (get p i)) o2)
                                        (exists ((o3 gf16_normal_limb))
                                          (and
                                            (= (to_rep o3) (bvxor o2 t2))
                                            (exists ((p2 map1))
                                              (and
                                                (= p2 (set p i o3))
                                                (exists ((o4 (_ BitVec 16)))
                                                  (and
                                                    (= (to_rep (get q i)) o4)
                                                    (exists ((o5 gf16_normal_limb))
                                                      (and
                                                        (= (to_rep o5) (bvxor o4 t2))
                                                        (exists ((q2 map1))
                                                          (and
                                                            (= q2 (set
                                                                    q
                                                                    i
                                                                    o5))
                                                            (exists ((i1 Int))
                                                              (and
                                                                (ite (= 
                                                                  swap true)
                                                                  (forall 
                                                                    ((j Int))
                                                                    (=>
                                                                    (and
                                                                    (<= 0 j)
                                                                    (<= j i1))
                                                                    (and
                                                                    (= 
                                                                    (to_rep
                                                                    (get
                                                                    p1
                                                                    j)) 
                                                                    (to_rep
                                                                    (get q j)))
                                                                    (= 
                                                                    (to_rep
                                                                    (get
                                                                    q1
                                                                    j)) 
                                                                    (to_rep
                                                                    (get p j))))))
                                                                  (forall 
                                                                    ((j Int))
                                                                    (=>
                                                                    (and
                                                                    (<= 0 j)
                                                                    (<= j i1))
                                                                    (and
                                                                    (= 
                                                                    (to_rep
                                                                    (get
                                                                    p1
                                                                    j)) 
                                                                    (to_rep
                                                                    (get p j)))
                                                                    (= 
                                                                    (to_rep
                                                                    (get
                                                                    q1
                                                                    j)) 
                                                                    (to_rep
                                                                    (get q j)))))))
                                                                (and
                                                                  (= (and 
                                                                  (ite 
                                                                    (and
                                                                    (and
                                                                    (and
                                                                    (has_bounds
                                                                    p1
                                                                    0
                                                                    15)
                                                                    (forall 
                                                                    ((temp___739 Int))
                                                                    (=>
                                                                    (and
                                                                    (<= 0 temp___739)
                                                                    (<= temp___739 15))
                                                                    (=>
                                                                    (or
                                                                    (< 15 temp___739)
                                                                    (or
                                                                    (< temp___739 0)
                                                                    (< i1 temp___739)))
                                                                    (= 
                                                                    (get
                                                                    p1
                                                                    temp___739) 
                                                                    (get
                                                                    p
                                                                    temp___739))))))
                                                                    (has_bounds
                                                                    q1
                                                                    0
                                                                    15))
                                                                    (forall 
                                                                    ((temp___742 Int))
                                                                    (=>
                                                                    (and
                                                                    (<= 0 temp___742)
                                                                    (<= temp___742 15))
                                                                    (=>
                                                                    (or
                                                                    (< 15 temp___742)
                                                                    (or
                                                                    (< temp___742 0)
                                                                    (< i1 temp___742)))
                                                                    (= 
                                                                    (get
                                                                    q1
                                                                    temp___742) 
                                                                    (get
                                                                    q
                                                                    temp___742))))))
                                                                    true
                                                                    false) 
                                                                  (ite 
                                                                    (and
                                                                    (<= 0 i1)
                                                                    (<= i1 15))
                                                                    true
                                                                    false)) true)
                                                                  (= i1 15)))))))))))))))))))))))
                      (and (and (= p1 p) (= q1 q)) (= t1 t)))))
                (=>
                  (=>
                    (= swap true)
                    (and
                      (= (bool_eq p1 0 15 q 0 15) true)
                      (= (bool_eq q1 0 15 p 0 15) true)))
                  (=> (not (= swap true)) (= (bool_eq q1 0 15 q 0 15) true))))))))))))

(check-sat)
